nohup: ignoring input
original problem has 3648 variables (192 bin, 0 int, 0 impl, 3456 cont) and 3312 constraints
original problem has 842 variables (421 bin, 0 int, 0 impl, 421 cont) and 479 constraints
original problem has 2728 variables (1364 bin, 0 int, 0 impl, 1364 cont) and 1442 constraints
original problem has 8904 variables (8904 bin, 0 int, 0 impl, 0 cont) and 1069 constraints
original problem has 7195 variables (7195 bin, 0 int, 0 impl, 0 cont) and 714 constraints
original problem has 6000 variables (6000 bin, 0 int, 0 impl, 0 cont) and 2171 constraints
original problem has 13873 variables (552 bin, 0 int, 0 impl, 13321 cont) and 3215 constraints
original problem has 521 variables (56 bin, 0 int, 0 impl, 465 cont) and 688 constraints
original problem has 67732 variables (67732 bin, 0 int, 0 impl, 0 cont) and 656 constraints
original problem has 63009 variables (63009 bin, 0 int, 0 impl, 0 cont) and 507 constraints
original problem has 1298 variables (1254 bin, 0 int, 0 impl, 44 cont) and 353 constraints
original problem has 322 variables (302 bin, 0 int, 0 impl, 20 cont) and 394 constraints
original problem has 2993 variables (2993 bin, 0 int, 0 impl, 0 cont) and 102 constraints
original problem has 1156 variables (1089 bin, 0 int, 0 impl, 67 cont) and 2178 constraints
original problem has 260 variables (259 bin, 0 int, 0 impl, 1 cont) and 224 constraints
original problem has 5325 variables (5323 bin, 0 int, 0 impl, 2 cont) and 3411 constraints
original problem has 10958 variables (96 bin, 0 int, 0 impl, 10862 cont) and 4480 constraints
original problem has 5174 variables (2349 bin, 0 int, 0 impl, 2825 cont) and 26509 constraints
original problem has 6621 variables (6620 bin, 0 int, 0 impl, 1 cont) and 721 constraints
original problem has 769 variables (768 bin, 0 int, 0 impl, 1 cont) and 64 constraints
original problem has 2756 variables (2756 bin, 0 int, 0 impl, 0 cont) and 729 constraints
original problem has 1835 variables (1835 bin, 0 int, 0 impl, 0 cont) and 2387 constraints
original problem has 840 variables (48 bin, 0 int, 0 impl, 792 cont) and 1192 constraints
original problem has 1372 variables (1372 bin, 0 int, 0 impl, 0 cont) and 4944 constraints
original problem has 14101 variables (14101 bin, 0 int, 0 impl, 0 cont) and 1739 constraints
original problem has 6805 variables (6724 bin, 0 int, 0 impl, 81 cont) and 564 constraints
original problem has 73885 variables (73885 bin, 0 int, 0 impl, 0 cont) and 1755 constraints
original problem has 1080 variables (360 bin, 0 int, 0 impl, 720 cont) and 742 constraints
original problem has 12481 variables (192 bin, 0 int, 0 impl, 12289 cont) and 22400 constraints
/home/liudefen/ecole-env/lib/python3.8/site-packages/numpy/lib/function_base.py:380: RuntimeWarning: Mean of empty slice.
  avg = a.mean(axis)
/home/liudefen/ecole-env/lib/python3.8/site-packages/numpy/core/_methods.py:189: RuntimeWarning: invalid value encountered in double_scalars
  ret = ret.dtype.type(ret / rcount)
arithmetic
miplib_39binary-small
rootsol
symmetric
./result/generated_instances/miplib_39binary/-small/rootsol/scip/heuristic_mode/lb-from-rootsol-t_total1200s-t_node2s-small_lb_k0_regression_beforenode/seed0/
./result/generated_instances/miplib_39binary/-small/rootsol/scip/heuristic_mode/lb-from-rootsol-t_total1200s-t_node2s-small_lb_k0_regression_beforenode_freq1000/seed0/
./result/generated_instances/miplib_39binary/-small/rootsol/scip/heuristic_mode/lb-from-rootsol-t_total1200s-t_node2s-small_lb_k0_regression_beforenode_freq1/seed0/
./result/generated_instances/miplib_39binary/-small/rootsol/scip/heuristic_mode/lb-from-rootsol-t_total1200s-t_node2s-small_lb_k0_regression_beforenode/seed0/
./result/generated_instances/miplib_39binary/-small/rootsol/scip/heuristic_mode/lb-from-rootsol-t_total1200s-t_node2s-small_lb_k0_regression_beforenode_freq100/seed0/
./result/generated_instances/miplib_39binary/-small/rootsol/scip/heuristic_mode/lb-from-rootsol-t_total1200s-t_node2s-small_lb_k0_regression_rl_beforenode_freq1000/seed0/
./result/generated_instances/miplib_39binary/-small/rootsol/scip/heuristic_mode/lb-from-rootsol-t_total1200s-t_node2s-small_lb_k0_regression_rl_beforenode_freq1/seed0/
./result/generated_instances/miplib_39binary/-small/rootsol/scip/heuristic_mode/lb-from-rootsol-t_total1200s-t_node2s-small_lb_k0_regression_rl_beforenode/seed0/
./result/generated_instances/miplib_39binary/-small/rootsol/scip/heuristic_mode/lb-from-rootsol-t_total1200s-t_node2s-small_lb_k0_regression_rl_beforenode_freq100/seed0/
seed: 0
cpu
arithmetic
miplib_39binary
rootsolSolution
scip-baseline primal integral:  57.965169450195106
scip-lb-baseline primal integral:  59.0292196285539
scip-lb-regression primal integral:  58.99645441321897
scip-lb-rl primal integral:  57.42573945380917
scip-lb-regression-rl primal integral:  54.72409326200338
scip-lb-baseline-multi primal integral:  59.9693395861878
scip-lb-regression-multi primal integral:  56.52635110182058
scip-lb-rl-multi primal integral:  59.493082420748976
scip-lb-regression-rl-multi primal integral:  56.47011213049399
rl primal integral:  nan


scip-baseline primal gap:  1.6387921009253574
scip-lb-baseline primal gap:  3.186037051030823
scip-lb-regression primal gap:  2.5872528680073117
scip-lb-rl primal gap:  2.9860000070205786
scip-lb-regression-rl primal gap:  2.2461863637327326
scip-lb-baseline-multi primal gap:  3.28590514044798
scip-lb-regression-multi primal gap:  2.5266484818263706
scip-lb-rl-multi primal gap:  2.7228839070756976
scip-lb-regression-rl-multi primal gap:  1.9435018347389388
rl primal gap:  nan
seed mcts:  0
seed mcts:  0
miplib_39binary-large
rootsol
symmetric
./result/generated_instances/miplib_39binary/-large/rootsol/scip/heuristic_mode/lb-from-rootsol-t_total1200s-t_node2s-large_lb_k0_regression_beforenode/seed0/
./result/generated_instances/miplib_39binary/-large/rootsol/scip/heuristic_mode/lb-from-rootsol-t_total1200s-t_node2s-large_lb_k0_regression_beforenode_freq1000/seed0/
./result/generated_instances/miplib_39binary/-large/rootsol/scip/heuristic_mode/lb-from-rootsol-t_total1200s-t_node2s-large_lb_k0_regression_beforenode_freq1/seed0/
./result/generated_instances/miplib_39binary/-large/rootsol/scip/heuristic_mode/lb-from-rootsol-t_total1200s-t_node2s-large_lb_k0_regression_beforenode/seed0/
./result/generated_instances/miplib_39binary/-large/rootsol/scip/heuristic_mode/lb-from-rootsol-t_total1200s-t_node2s-large_lb_k0_regression_beforenode_freq100/seed0/
./result/generated_instances/miplib_39binary/-large/rootsol/scip/heuristic_mode/lb-from-rootsol-t_total1200s-t_node2s-large_lb_k0_regression_rl_beforenode_freq1000/seed0/
./result/generated_instances/miplib_39binary/-large/rootsol/scip/heuristic_mode/lb-from-rootsol-t_total1200s-t_node2s-large_lb_k0_regression_rl_beforenode_freq1/seed0/
./result/generated_instances/miplib_39binary/-large/rootsol/scip/heuristic_mode/lb-from-rootsol-t_total1200s-t_node2s-large_lb_k0_regression_rl_beforenode/seed0/
./result/generated_instances/miplib_39binary/-large/rootsol/scip/heuristic_mode/lb-from-rootsol-t_total1200s-t_node2s-large_lb_k0_regression_rl_beforenode_freq100/seed0/
seed: 0
cpu
